136369
17,69,93,100,104,2,77,95,59,90,78,42,0,86,43,65,58,9,26,27,57,75,23,101,73,82,56,79,88,92,11,22,91,8,33,25,49,13,46,60,14,3,102,34,74,31,62,50,81,71,99,98,67,18,80,41,97,105,7,96,54,28,29,4,51,64,30,12,87,68,5,39,55,19,15,63,89,16,20,76,45,85,21,61,24,44,1,47,84,10,40,66,103,37,94,53,70,35,72,32,83,52,6,38,36,48
